words_hard_train/4928.qaiger
aag 47 24 0 1 23
2
4
8
10
14
16
22
24
30
32
36
38
46
48
52
54
62
68
70
74
78
80
88
90
95
6 3 5
12 8 10
18 14 16
20 13 19
26 22 24
28 20 27
34 30 32
40 36 38
42 35 41
44 28 42
50 46 48
56 52 54
58 51 57
60 44 58
64 61 63
66 6 65
72 69 71
76 72 75
82 79 81
84 76 82
86 66 84
92 88 90
94 87 93
i0 1 x1[1]
i1 1 x1[5]
i2 2 y2[4]
i3 2 y1[4]
i4 2 y2[5]
i5 2 y1[5]
i6 2 y2[3]
i7 2 y1[3]
i8 2 y2[6]
i9 2 y1[6]
i10 2 y2[2]
i11 2 y1[2]
i12 2 y2[1]
i13 2 y1[1]
i14 2 y2[0]
i15 2 y1[0]
i16 1 x1[7]
i17 1 x1[2]
i18 1 x1[4]
i19 1 x1[3]
i20 1 x1[0]
i21 1 x1[6]
i22 2 y2[7]
i23 2 y1[7]
o0 bv[0]
c
simplified
  <
    or
      abs
        1 x1
      and
        2 y1
        2 y2
    1
