words_hard_train/4928.qaiger.qdimacs
p cnf 47 70
a 1 2 35 34 37 39 40 31 0
e 3 4 5 6 7 8 9 10 11 12 13 14 15 16 17 18 19 20 21 22 23 24 25 26 27 28 29 30 32 33 36 38 41 42 43 44 45 46 47 0
1 2 3 0
-1 -3 0
-2 -3 0
-4 -5 6 0
4 -6 0
5 -6 0
-7 -8 9 0
7 -9 0
8 -9 0
6 9 10 0
-6 -10 0
-9 -10 0
-11 -12 13 0
11 -13 0
12 -13 0
-10 13 14 0
10 -14 0
-13 -14 0
-15 -16 17 0
15 -17 0
16 -17 0
-18 -19 20 0
18 -20 0
19 -20 0
17 20 21 0
-17 -21 0
-20 -21 0
-14 -21 22 0
14 -22 0
21 -22 0
-23 -24 25 0
23 -25 0
24 -25 0
-26 -27 28 0
26 -28 0
27 -28 0
25 28 29 0
-25 -29 0
-28 -29 0
-22 -29 30 0
22 -30 0
29 -30 0
30 31 32 0
-30 -32 0
-31 -32 0
-3 32 33 0
3 -33 0
-32 -33 0
34 35 36 0
-34 -36 0
-35 -36 0
-36 37 38 0
36 -38 0
-37 -38 0
39 40 41 0
-39 -41 0
-40 -41 0
-38 -41 42 0
38 -42 0
41 -42 0
-33 -42 43 0
33 -43 0
42 -43 0
-44 -45 46 0
44 -46 0
45 -46 0
43 46 47 0
-43 -47 0
-46 -47 0
-47 0
